
Log started (V12.6.3.0) Tue Jun  6 12:38:50 2017

New value for default parallel thread count: 1

Problem '/tmp/tmp78b9JM.pyomo.lp' read.
Read time = 0.00 sec. (0.23 ticks)

Problem name         : /tmp/tmp78b9JM.pyomo.lp
Objective sense      : Minimize
Variables            :    2462  [Nneg: 2431,  Binary: 30,  General Integer: 1]
Objective nonzeros   :       1
Linear constraints   :    1211  [Less: 30,  Equal: 1181]
  Nonzeros           :    8427
  RHS nonzeros       :      37

Variables            : Min LB: 0.000000         Max UB: 1.000000       
Objective nonzeros   : Min   : 1.000000         Max   : 1.000000       
Linear constraints   :
  Nonzeros           : Min   : 1.000000         Max   : 10900.00       
  RHS nonzeros       : Min   : 1.000000         Max   : 18450.00       
Tried aggregator 4 times.
MIP Presolve eliminated 1150 rows and 2280 columns.
MIP Presolve added 1 rows and 1 columns.
Aggregator did 9 substitutions.
Reduced MIP has 53 rows, 174 columns, and 507 nonzeros.
Reduced MIP has 21 binaries, 1 generals, 0 SOSs, and 0 indicators.
Presolve time = 0.00 sec. (2.93 ticks)
Found incumbent of value 25.000000 after 0.00 sec. (3.78 ticks)
Probing fixed 1 vars, tightened 2 bounds.
Probing time = 0.00 sec. (0.05 ticks)
Tried aggregator 2 times.
MIP Presolve eliminated 1 rows and 1 columns.
Aggregator did 1 substitutions.
Reduced MIP has 51 rows, 172 columns, and 502 nonzeros.
Reduced MIP has 20 binaries, 1 generals, 0 SOSs, and 0 indicators.
Presolve time = 0.00 sec. (0.27 ticks)
Probing time = 0.00 sec. (0.03 ticks)
Clique table members: 4.
MIP emphasis: balance optimality and feasibility.
MIP search method: dynamic search.
Parallel mode: none, using 1 thread.
Root relaxation solution time = 0.00 sec. (0.50 ticks)

        Nodes                                         Cuts/
   Node  Left     Objective  IInf  Best Integer    Best Bound    ItCnt     Gap

*     0+    0                           25.0000        6.0000            76.00%
      0     0       10.1818     9       25.0000       10.1818       85   59.27%
*     0+    0                           14.0000       10.1818            27.27%
*     0+    0                           13.0000       10.1818            21.68%
      0     0       11.4000     6       13.0000      Cuts: 37      145   12.31%
      0     0       12.0000     6       13.0000      Cuts: 36      244    7.69%
      0     0        cutoff             13.0000                    271    0.00%
Elapsed time = 0.01 sec. (8.91 ticks, tree = 0.01 MB, solutions = 3)

Clique cuts applied:  2
Cover cuts applied:  2
Implied bound cuts applied:  9
Flow cuts applied:  7
Mixed integer rounding cuts applied:  7
Gomory fractional cuts applied:  3

Root node processing (before b&c):
  Real time             =    0.01 sec. (9.01 ticks)
Sequential b&c:
  Real time             =    0.00 sec. (0.00 ticks)
                          ------------
Total (root+branch&cut) =    0.01 sec. (9.01 ticks)

Solution pool: 3 solutions saved.

MIP - Integer optimal solution:  Objective =  1.3000000000e+01
Solution time =    0.01 sec.  Iterations = 271  Nodes = 0
Deterministic time = 9.02 ticks  (708.64 ticks/sec)


Incumbent solution written to file '/tmp/tmpy3EK5l.cplex.sol'.

Log started (V12.6.3.0) Mon Jul 24 16:43:30 2017

New value for default parallel thread count: 1

Problem '/tmp/tmp7vucTb.pyomo.lp' read.
Read time = 0.00 sec. (0.23 ticks)

Problem name         : /tmp/tmp7vucTb.pyomo.lp
Objective sense      : Minimize
Variables            :    2462  [Nneg: 2431,  Binary: 30,  General Integer: 1]
Objective nonzeros   :       1
Linear constraints   :    1211  [Less: 30,  Equal: 1181]
  Nonzeros           :    8427
  RHS nonzeros       :      37

Variables            : Min LB: 0.000000         Max UB: 1.000000       
Objective nonzeros   : Min   : 1.000000         Max   : 1.000000       
Linear constraints   :
  Nonzeros           : Min   : 1.000000         Max   : 10900.00       
  RHS nonzeros       : Min   : 1.000000         Max   : 18450.00       
Tried aggregator 4 times.
MIP Presolve eliminated 1150 rows and 2280 columns.
MIP Presolve added 1 rows and 1 columns.
Aggregator did 9 substitutions.
Reduced MIP has 53 rows, 174 columns, and 507 nonzeros.
Reduced MIP has 21 binaries, 1 generals, 0 SOSs, and 0 indicators.
Presolve time = 0.00 sec. (2.93 ticks)
Found incumbent of value 25.000000 after 0.00 sec. (3.78 ticks)
Probing fixed 1 vars, tightened 2 bounds.
Probing time = 0.00 sec. (0.05 ticks)
Tried aggregator 2 times.
MIP Presolve eliminated 1 rows and 1 columns.
Aggregator did 1 substitutions.
Reduced MIP has 51 rows, 172 columns, and 502 nonzeros.
Reduced MIP has 20 binaries, 1 generals, 0 SOSs, and 0 indicators.
Presolve time = 0.00 sec. (0.27 ticks)
Probing time = 0.00 sec. (0.03 ticks)
Clique table members: 4.
MIP emphasis: balance optimality and feasibility.
MIP search method: dynamic search.
Parallel mode: none, using 1 thread.
Root relaxation solution time = 0.00 sec. (0.50 ticks)

        Nodes                                         Cuts/
   Node  Left     Objective  IInf  Best Integer    Best Bound    ItCnt     Gap

*     0+    0                           25.0000        6.0000            76.00%
      0     0       10.1818     9       25.0000       10.1818       85   59.27%
*     0+    0                           14.0000       10.1818            27.27%
*     0+    0                           13.0000       10.1818            21.68%
      0     0       11.4000     6       13.0000      Cuts: 37      145   12.31%
      0     0       12.0000     6       13.0000      Cuts: 36      244    7.69%
      0     0        cutoff             13.0000                    271    0.00%
Elapsed time = 0.01 sec. (8.91 ticks, tree = 0.01 MB, solutions = 3)

Clique cuts applied:  2
Cover cuts applied:  2
Implied bound cuts applied:  9
Flow cuts applied:  7
Mixed integer rounding cuts applied:  7
Gomory fractional cuts applied:  3

Root node processing (before b&c):
  Real time             =    0.01 sec. (9.01 ticks)
Sequential b&c:
  Real time             =    0.00 sec. (0.00 ticks)
                          ------------
Total (root+branch&cut) =    0.01 sec. (9.01 ticks)

Solution pool: 3 solutions saved.

MIP - Integer optimal solution:  Objective =  1.3000000000e+01
Solution time =    0.01 sec.  Iterations = 271  Nodes = 0
Deterministic time = 9.02 ticks  (933.34 ticks/sec)


Incumbent solution written to file '/tmp/tmpSUgrzQ.cplex.sol'.

Log started (V12.6.3.0) Mon Jul 24 16:45:08 2017

New value for default parallel thread count: 1

Problem '/tmp/tmpJnyKgc.pyomo.lp' read.
Read time = 0.00 sec. (0.23 ticks)

Problem name         : /tmp/tmpJnyKgc.pyomo.lp
Objective sense      : Minimize
Variables            :    2462  [Nneg: 2431,  Binary: 30,  General Integer: 1]
Objective nonzeros   :       1
Linear constraints   :    1211  [Less: 30,  Equal: 1181]
  Nonzeros           :    8427
  RHS nonzeros       :      37

Variables            : Min LB: 0.000000         Max UB: 1.000000       
Objective nonzeros   : Min   : 1.000000         Max   : 1.000000       
Linear constraints   :
  Nonzeros           : Min   : 1.000000         Max   : 10900.00       
  RHS nonzeros       : Min   : 1.000000         Max   : 18450.00       
Tried aggregator 4 times.
MIP Presolve eliminated 1150 rows and 2280 columns.
MIP Presolve added 1 rows and 1 columns.
Aggregator did 9 substitutions.
Reduced MIP has 53 rows, 174 columns, and 507 nonzeros.
Reduced MIP has 21 binaries, 1 generals, 0 SOSs, and 0 indicators.
Presolve time = 0.00 sec. (2.93 ticks)
Found incumbent of value 25.000000 after 0.00 sec. (3.78 ticks)
Probing fixed 1 vars, tightened 2 bounds.
Probing time = 0.00 sec. (0.05 ticks)
Tried aggregator 2 times.
MIP Presolve eliminated 1 rows and 1 columns.
Aggregator did 1 substitutions.
Reduced MIP has 51 rows, 172 columns, and 502 nonzeros.
Reduced MIP has 20 binaries, 1 generals, 0 SOSs, and 0 indicators.
Presolve time = 0.00 sec. (0.27 ticks)
Probing time = 0.00 sec. (0.03 ticks)
Clique table members: 4.
MIP emphasis: balance optimality and feasibility.
MIP search method: dynamic search.
Parallel mode: none, using 1 thread.
Root relaxation solution time = 0.00 sec. (0.50 ticks)

        Nodes                                         Cuts/
   Node  Left     Objective  IInf  Best Integer    Best Bound    ItCnt     Gap

*     0+    0                           25.0000        6.0000            76.00%
      0     0       10.1818     9       25.0000       10.1818       85   59.27%
*     0+    0                           14.0000       10.1818            27.27%
*     0+    0                           13.0000       10.1818            21.68%
      0     0       11.4000     6       13.0000      Cuts: 37      145   12.31%
      0     0       12.0000     6       13.0000      Cuts: 36      244    7.69%
      0     0        cutoff             13.0000                    271    0.00%
Elapsed time = 0.01 sec. (8.91 ticks, tree = 0.01 MB, solutions = 3)

Clique cuts applied:  2
Cover cuts applied:  2
Implied bound cuts applied:  9
Flow cuts applied:  7
Mixed integer rounding cuts applied:  7
Gomory fractional cuts applied:  3

Root node processing (before b&c):
  Real time             =    0.01 sec. (9.01 ticks)
Sequential b&c:
  Real time             =    0.00 sec. (0.00 ticks)
                          ------------
Total (root+branch&cut) =    0.01 sec. (9.01 ticks)

Solution pool: 3 solutions saved.

MIP - Integer optimal solution:  Objective =  1.3000000000e+01
Solution time =    0.01 sec.  Iterations = 271  Nodes = 0
Deterministic time = 9.02 ticks  (940.07 ticks/sec)


Incumbent solution written to file '/tmp/tmpbS7Zpo.cplex.sol'.

Log started (V12.6.3.0) Mon Jul 24 16:57:52 2017

New value for default parallel thread count: 1

Problem '/tmp/tmpa5XCv3.pyomo.lp' read.
Read time = 0.00 sec. (0.23 ticks)

Problem name         : /tmp/tmpa5XCv3.pyomo.lp
Objective sense      : Minimize
Variables            :    2462  [Nneg: 2431,  Binary: 30,  General Integer: 1]
Objective nonzeros   :       1
Linear constraints   :    1211  [Less: 30,  Equal: 1181]
  Nonzeros           :    8427
  RHS nonzeros       :      37

Variables            : Min LB: 0.000000         Max UB: 1.000000       
Objective nonzeros   : Min   : 1.000000         Max   : 1.000000       
Linear constraints   :
  Nonzeros           : Min   : 1.000000         Max   : 10900.00       
  RHS nonzeros       : Min   : 1.000000         Max   : 18450.00       
Tried aggregator 4 times.
MIP Presolve eliminated 1150 rows and 2280 columns.
MIP Presolve added 1 rows and 1 columns.
Aggregator did 9 substitutions.
Reduced MIP has 53 rows, 174 columns, and 507 nonzeros.
Reduced MIP has 21 binaries, 1 generals, 0 SOSs, and 0 indicators.
Presolve time = 0.00 sec. (2.93 ticks)
Found incumbent of value 25.000000 after 0.00 sec. (3.78 ticks)
Probing fixed 1 vars, tightened 2 bounds.
Probing time = 0.00 sec. (0.05 ticks)
Tried aggregator 2 times.
MIP Presolve eliminated 1 rows and 1 columns.
Aggregator did 1 substitutions.
Reduced MIP has 51 rows, 172 columns, and 502 nonzeros.
Reduced MIP has 20 binaries, 1 generals, 0 SOSs, and 0 indicators.
Presolve time = 0.00 sec. (0.27 ticks)
Probing time = 0.00 sec. (0.03 ticks)
Clique table members: 4.
MIP emphasis: balance optimality and feasibility.
MIP search method: dynamic search.
Parallel mode: none, using 1 thread.
Root relaxation solution time = 0.00 sec. (0.50 ticks)

        Nodes                                         Cuts/
   Node  Left     Objective  IInf  Best Integer    Best Bound    ItCnt     Gap

*     0+    0                           25.0000        6.0000            76.00%
      0     0       10.1818     9       25.0000       10.1818       85   59.27%
*     0+    0                           14.0000       10.1818            27.27%
*     0+    0                           13.0000       10.1818            21.68%
      0     0       11.4000     6       13.0000      Cuts: 37      145   12.31%
      0     0       12.0000     6       13.0000      Cuts: 36      244    7.69%
      0     0        cutoff             13.0000                    271    0.00%
Elapsed time = 0.01 sec. (8.91 ticks, tree = 0.01 MB, solutions = 3)

Clique cuts applied:  2
Cover cuts applied:  2
Implied bound cuts applied:  9
Flow cuts applied:  7
Mixed integer rounding cuts applied:  7
Gomory fractional cuts applied:  3

Root node processing (before b&c):
  Real time             =    0.01 sec. (9.01 ticks)
Sequential b&c:
  Real time             =    0.00 sec. (0.00 ticks)
                          ------------
Total (root+branch&cut) =    0.01 sec. (9.01 ticks)

Solution pool: 3 solutions saved.

MIP - Integer optimal solution:  Objective =  1.3000000000e+01
Solution time =    0.01 sec.  Iterations = 271  Nodes = 0
Deterministic time = 9.02 ticks  (954.59 ticks/sec)


Incumbent solution written to file '/tmp/tmpW2NH02.cplex.sol'.

Log started (V12.6.3.0) Wed Jul 26 11:54:42 2017

New value for default parallel thread count: 1

Problem '/tmp/tmpqgSjFn.pyomo.lp' read.
Read time = 0.00 sec. (0.23 ticks)

Problem name         : /tmp/tmpqgSjFn.pyomo.lp
Objective sense      : Minimize
Variables            :    2462  [Nneg: 2431,  Binary: 30,  General Integer: 1]
Objective nonzeros   :       1
Linear constraints   :    1211  [Less: 30,  Equal: 1181]
  Nonzeros           :    8427
  RHS nonzeros       :      37

Variables            : Min LB: 0.000000         Max UB: 1.000000       
Objective nonzeros   : Min   : 1.000000         Max   : 1.000000       
Linear constraints   :
  Nonzeros           : Min   : 1.000000         Max   : 10900.00       
  RHS nonzeros       : Min   : 1.000000         Max   : 18450.00       
Tried aggregator 4 times.
MIP Presolve eliminated 1150 rows and 2280 columns.
MIP Presolve added 1 rows and 1 columns.
Aggregator did 9 substitutions.
Reduced MIP has 53 rows, 174 columns, and 507 nonzeros.
Reduced MIP has 21 binaries, 1 generals, 0 SOSs, and 0 indicators.
Presolve time = 0.00 sec. (2.93 ticks)
Found incumbent of value 25.000000 after 0.01 sec. (3.78 ticks)
Probing fixed 1 vars, tightened 2 bounds.
Probing time = 0.00 sec. (0.05 ticks)
Tried aggregator 2 times.
MIP Presolve eliminated 1 rows and 1 columns.
Aggregator did 1 substitutions.
Reduced MIP has 51 rows, 172 columns, and 502 nonzeros.
Reduced MIP has 20 binaries, 1 generals, 0 SOSs, and 0 indicators.
Presolve time = 0.00 sec. (0.27 ticks)
Probing time = 0.00 sec. (0.03 ticks)
Clique table members: 4.
MIP emphasis: balance optimality and feasibility.
MIP search method: dynamic search.
Parallel mode: none, using 1 thread.
Root relaxation solution time = 0.00 sec. (0.50 ticks)

        Nodes                                         Cuts/
   Node  Left     Objective  IInf  Best Integer    Best Bound    ItCnt     Gap

*     0+    0                           25.0000        6.0000            76.00%
      0     0       10.1818     9       25.0000       10.1818       85   59.27%
*     0+    0                           14.0000       10.1818            27.27%
*     0+    0                           13.0000       10.1818            21.68%
      0     0       11.4000     6       13.0000      Cuts: 37      145   12.31%
      0     0       12.0000     6       13.0000      Cuts: 36      244    7.69%
      0     0        cutoff             13.0000                    271    0.00%
Elapsed time = 0.01 sec. (8.91 ticks, tree = 0.01 MB, solutions = 3)

Clique cuts applied:  2
Cover cuts applied:  2
Implied bound cuts applied:  9
Flow cuts applied:  7
Mixed integer rounding cuts applied:  7
Gomory fractional cuts applied:  3

Root node processing (before b&c):
  Real time             =    0.02 sec. (9.01 ticks)
Sequential b&c:
  Real time             =    0.00 sec. (0.00 ticks)
                          ------------
Total (root+branch&cut) =    0.02 sec. (9.01 ticks)

Solution pool: 3 solutions saved.

MIP - Integer optimal solution:  Objective =  1.3000000000e+01
Solution time =    0.02 sec.  Iterations = 271  Nodes = 0
Deterministic time = 9.02 ticks  (597.81 ticks/sec)


Incumbent solution written to file '/tmp/tmp3Au3z7.cplex.sol'.
